50 62
   1   -1   -1   -1   -1   -1   -1   -1   -1   -1   -1    6   -1   -1   -1   -1   44   -1   -1   21   -1   -1   38   -1   -1   -1   -1   -1   13   -1   -1   17   -1   -1   -1   -1   -1    5   23   -1   -1   10   -1    2   -1   -1   -1   -1   37   -1 
   0    1   34   -1   20   -1   13   -1   -1   -1   -1   -1   -1   -1   -1   -1   -1   -1   -1   40   -1   -1   40   37   -1   -1   22   47   -1   -1   -1   -1   -1   13   -1    1   -1   -1   -1   -1   58   -1   -1   -1   -1   -1   -1   16   -1   -1 
   0    0    1   -1   -1   -1   -1   16   -1   14   -1   -1   -1   -1   -1   31   -1   -1   26   -1   -1   -1   -1   -1   -1   -1   -1    6   -1   -1   -1   -1   -1   -1   -1   -1   -1   -1   49   -1   -1   -1   -1   -1   44   -1   -1   43   14   -1 
   0    0    0    1   -1   -1   -1   -1   -1   57   -1   -1   -1   -1   -1   -1   -1   58   -1   -1   -1   -1   10   -1   -1   -1   -1   50   -1   -1   -1   -1   21   -1   -1   -1   -1   -1   -1   -1   -1   -1   -1   -1   -1   14   -1   -1   -1   -1 
   0    0    0    0    1   -1   26   -1   -1   -1   21   -1   -1   -1   -1   35   -1   -1   -1   -1   -1   -1   -1   -1   57   -1   -1   -1   25   -1   -1   -1   41   -1   -1   -1   -1   -1   -1   -1   -1   10   -1   -1   -1   -1   -1   -1   -1   -1 
   0    0    0    0    0    1   14   -1   -1   21   -1   58   41   -1   -1   -1   -1   -1   -1   -1   -1   -1   28   -1   20   -1   -1   -1    4   48   22   42   -1   -1   -1   -1   -1   -1   -1   -1   -1   -1   -1   -1   -1   -1   -1   -1   52   -1 
   0    0    0    0    0    0    1   -1   -1   -1   47   45   -1   -1   -1   -1   -1   -1   39   -1   -1   -1   -1   -1   -1   -1   -1   -1   -1   -1   -1   -1   13   -1   -1   -1   -1   -1   -1   -1   -1   49   -1   13   39   -1   -1   36   -1   -1 
   0    0    0    0    0    0    0    1   -1   -1   -1   -1   -1   41   -1   -1   22   -1   -1   -1   -1   -1   -1   21   -1   -1   -1   -1   18   -1   -1   -1   -1   44   -1   -1   -1   -1   -1   -1   -1   -1   -1   -1   -1   -1   -1   -1   40   -1 
   0    0    0    0    0    0    0    0    1   -1   23   -1   -1   -1   -1   -1   -1   -1   -1   -1   -1   -1   -1   -1   -1   -1   -1   -1   -1   -1   -1   -1   -1   -1   -1   -1   -1   -1   43   -1   -1   -1   -1   -1   -1   -1   -1   -1   -1   -1 
   0    0    0    0    0    0    0    0    0    1   -1   -1   -1   61   -1   -1   -1    3   -1   -1   -1   37   -1   -1   -1   -1   -1   -1   -1   26   -1   39   34   -1   -1   -1   -1   -1   -1   33   -1    1   -1   -1   -1   11   61   -1   -1   -1 
   0    0    0    0    0    0    0    0    0    0    0   38   -1   -1   -1   -1   -1   -1    4   22   -1   15   11   14   -1   -1   -1   -1   -1   -1   19   -1   -1   -1    5   -1   54   -1   -1   -1   53   -1   -1   -1   10   -1   -1   -1   25   -1 
   0    0    0    0    0    0    0    0    0    0    0    0   -1   -1   -1   -1   -1   -1   -1   -1   -1   -1   -1   -1   -1    1   -1   -1   -1   -1   -1   -1   -1   -1   20   -1   -1   -1   -1   -1   -1   -1   -1   -1   -1   -1   58   -1   -1   57 
   0    0    0    0    0    0    0    0    0    0    0    0    0   -1   50   -1   -1   -1   -1   -1   23   -1   -1   -1   -1   -1   -1   -1   -1   -1   -1   61   -1   -1   -1   -1   -1   -1   -1   -1   -1   -1   -1   -1   31   -1   -1   -1   -1   29 
   0    0    0    0    0    0    0    0    0    0    0    0    0    0   -1   -1   39   -1   -1   -1   21   -1   -1   -1   -1   47   -1   -1   20   -1   -1   -1   -1   20   -1   -1    8   58   -1   29   -1   -1   26   -1   -1   41   -1   -1   -1   -1 
   0    0    0    0    0    0    0    0    0    0    0    0    0    0    0   59   -1   -1   -1    9   -1   21   -1   -1   -1   30   -1   -1   -1   -1   -1   -1   11   -1   39   -1   -1   -1   -1    3   -1   -1   -1   -1   17   -1    0   -1   15   -1 
   0    0    0    0    0    0    0    0    0    0    0    0    0    0    0    0   -1   -1   -1   29   -1   -1   -1   -1   -1   -1   -1   -1   48   -1   -1   -1   14   -1   58   30   -1   -1   -1   59   -1   -1   -1   -1   -1   41   36   -1   -1   -1 
   0    0    0    0    0    0    0    0    0    0    0    0    0    0    0    0    0   -1   -1   -1   -1   -1    5   -1   -1   -1   -1   -1   -1   -1   -1   -1   -1   -1   17   -1   -1   -1   -1   -1   40   -1   -1   59   59   -1   -1    9   -1   -1 
   0    0    0    0    0    0    0    0    0    0    0    0    0    0    0    0    0    0   -1   -1   -1   37   -1   46   -1   -1   -1   -1   -1   -1   -1   -1   -1   -1   -1   -1   -1   -1   33   -1   60   28   14   -1   51   -1   -1   -1   -1   45 
   0    0    0    0    0    0    0    0    0    0    0    0    0    0    0    0    0    0    0   -1   -1   -1   -1   -1   -1   -1   -1   -1   -1   -1   -1   61   -1   -1   -1   13   26   -1   -1   -1   -1   -1   -1   -1   -1   -1   49   -1   -1   -1 
   0    0    0    0    0    0    0    0    0    0    0    0    0    0    0    0    0    0    0    0   -1   -1   -1   -1    5   -1   -1   -1   -1   -1   28   -1   -1   -1   -1   -1   -1   -1   -1   -1   -1   -1   -1   -1   31   -1   -1   -1   -1   -1 
   0    0    0    0    0    0    0    0    0    0    0    0    0    0    0    0    0    0    0    0    0   -1   42   -1   -1   -1   -1   12   -1   -1   34   -1   -1   -1   -1   -1   -1   -1   -1   -1   -1   -1   -1   -1   40   25   30   -1   -1   -1 
   0    0    0    0    0    0    0    0    0    0    0    0    0    0    0    0    0    0    0    0    0    0   -1   -1   -1   -1   -1   -1   -1    5   -1   -1   -1   -1   -1   -1   -1   -1   -1   -1   -1   -1   -1   -1   -1   -1   -1   -1   -1   -1 
   0    0    0    0    0    0    0    0    0    0    0    0    0    0    0    0    0    0    0    0    0    0    0   -1   -1   -1   -1   -1   -1   -1   -1   -1    2   -1   -1   -1   -1   -1   -1   -1   -1   -1   -1   -1   12   -1   -1   24   -1   -1 
   0    0    0    0    0    0    0    0    0    0    0    0    0    0    0    0    0    0    0    0    0    0    0    0   -1   -1   -1   -1   -1   -1   -1   -1   -1   -1   57   -1   -1   -1   -1   -1   -1   -1   -1   17   -1   28   -1   -1   -1   -1 
   0    0    0    0    0    0    0    0    0    0    0    0    0    0    0    0    0    0    0    0    0    0    0    0    0   -1   -1   -1   -1   -1   -1   -1   -1   -1   -1   -1   -1   -1   -1   -1    8   -1   -1   -1   -1   -1   -1   -1   -1   -1 
   0    0    0    0    0    0    0    0    0    0    0    0    0    0    0    0    0    0    0    0    0    0    0    0    0    0   -1   -1   -1   -1   -1   21   -1   -1   -1   -1   -1   44   -1   -1   -1   -1   -1   -1   -1   41   -1   -1   -1   -1 
   0    0    0    0    0    0    0    0    0    0    0    0    0    0    0    0    0    0    0    0    0    0    0    0    0    0    0   -1    1   -1   43   -1   -1   -1   -1   -1   36   -1   -1   -1   19   -1   -1   -1   30   -1   -1   -1   -1   -1 
   0    0    0    0    0    0    0    0    0    0    0    0    0    0    0    0    0    0    0    0    0    0    0    0    0    0    0    0   -1   -1   -1   60   -1   -1   -1   -1   -1   37   -1   -1   55   -1   -1   -1   -1   -1   -1   -1   34   -1 
   0    0    0    0    0    0    0    0    0    0    0    0    0    0    0    0    0    0    0    0    0    0    0    0    0    0    0    0    0   -1   -1   -1   -1   -1   -1   57   -1   -1   -1   -1   -1   -1   -1   -1   -1   -1   -1   -1   -1   -1 
   0    0    0    0    0    0    0    0    0    0    0    0    0    0    0    0    0    0    0    0    0    0    0    0    0    0    0    0    0    0   -1   -1   -1   -1   -1   26   -1   -1   -1   -1   -1   -1   -1   -1   -1   -1   16   -1   -1   30 
   0    0    0    0    0    0    0    0    0    0    0    0    0    0    0    0    0    0    0    0    0    0    0    0    0    0    0    0    0    0    0   34   -1   -1   -1   33   -1   -1   -1    7   -1   -1   -1   -1   -1   -1   -1   -1   -1   -1 
   0    0    0    0    0    0    0    0    0    0    0    0    0    0    0    0    0    0    0    0    0    0    0    0    0    0    0    0    0    0    0    0   -1   -1   -1   -1   -1    3   -1   -1   -1   -1   -1   -1   -1   -1   -1   -1   -1   -1 
   0    0    0    0    0    0    0    0    0    0    0    0    0    0    0    0    0    0    0    0    0    0    0    0    0    0    0    0    0    0    0    0    0    4   55   41   -1   -1   -1   -1   22   -1   -1   23   -1   12   -1   -1    4   -1 
   0    0    0    0    0    0    0    0    0    0    0    0    0    0    0    0    0    0    0    0    0    0    0    0    0    0    0    0    0    0    0    0    0    0   -1   -1   -1   -1   -1   -1   -1   -1   -1   -1   51   -1   -1   -1   -1   -1 
   0    0    0    0    0    0    0    0    0    0    0    0    0    0    0    0    0    0    0    0    0    0    0    0    0    0    0    0    0    0    0    0    0    0    0   -1   -1   -1   -1   -1   27   -1   -1   -1   -1   42   -1   -1   28   -1 
   0    0    0    0    0    0    0    0    0    0    0    0    0    0    0    0    0    0    0    0    0    0    0    0    0    0    0    0    0    0    0    0    0    0    0    0   -1   -1   -1   -1   -1   13   28   -1   32    6   -1   -1   61   -1 
   0    0    0    0    0    0    0    0    0    0    0    0    0    0    0    0    0    0    0    0    0    0    0    0    0    0    0    0    0    0    0    0    0    0    0    0    0   -1   -1   -1   48   57   -1   -1   22   -1   -1   -1   -1   -1 
   0    0    0    0    0    0    0    0    0    0    0    0    0    0    0    0    0    0    0    0    0    0    0    0    0    0    0    0    0    0    0    0    0    0    0    0    0    0   -1   45   -1   -1   -1   -1   -1   -1   -1    7   -1   -1 
   0    0    0    0    0    0    0    0    0    0    0    0    0    0    0    0    0    0    0    0    0    0    0    0    0    0    0    0    0    0    0    0    0    0    0    0    0    0    0   59   -1   -1   -1   -1   -1   -1   -1   -1   -1   43 
   0    0    0    0    0    0    0    0    0    0    0    0    0    0    0    0    0    0    0    0    0    0    0    0    0    0    0    0    0    0    0    0    0    0    0    0    0    0    0    0   -1   57    2   -1   -1   11   -1   -1   -1   -1 
   0    0    0    0    0    0    0    0    0    0    0    0    0    0    0    0    0    0    0    0    0    0    0    0    0    0    0    0    0    0    0    0    0    0    0    0    0    0    0    0    0   -1   -1   -1   55   -1   52   -1   -1   32 
   0    0    0    0    0    0    0    0    0    0    0    0    0    0    0    0    0    0    0    0    0    0    0    0    0    0    0    0    0    0    0    0    0    0    0    0    0    0    0    0    0    0   -1   -1   49   -1   24    0   -1   -1 
   0    0    0    0    0    0    0    0    0    0    0    0    0    0    0    0    0    0    0    0    0    0    0    0    0    0    0    0    0    0    0    0    0    0    0    0    0    0    0    0    0    0    0   -1   -1   -1   -1   -1   -1   -1 
   0    0    0    0    0    0    0    0    0    0    0    0    0    0    0    0    0    0    0    0    0    0    0    0    0    0    0    0    0    0    0    0    0    0    0    0    0    0    0    0    0    0    0    0   -1   -1   -1   -1   -1   -1 
   0    0    0    0    0    0    0    0    0    0    0    0    0    0    0    0    0    0    0    0    0    0    0    0    0    0    0    0    0    0    0    0    0    0    0    0    0    0    0    0    0    0    0    0    0    5   -1   -1   -1   -1 
   0    0    0    0    0    0    0    0    0    0    0    0    0    0    0    0    0    0    0    0    0    0    0    0    0    0    0    0    0    0    0    0    0    0    0    0    0    0    0    0    0    0    0    0    0    0   -1   13   -1   30 
   0    0    0    0    0    0    0    0    0    0    0    0    0    0    0    0    0    0    0    0    0    0    0    0    0    0    0    0    0    0    0    0    0    0    0    0    0    0    0    0    0    0    0    0    0    0    0   21   -1   -1 
   0    0    0    0    0    0    0    0    0    0    0    0    0    0    0    0    0    0    0    0    0    0    0    0    0    0    0    0    0    0    0    0    0    0    0    0    0    0    0    0    0    0    0    0    0    0    0    0   -1   39 
   0    0    0    0    0    0    0    0    0    0    0    0    0    0    0    0    0    0    0    0    0    0    0    0    0    0    0    0    0    0    0    0    0    0    0    0    0    0    0    0    0    0    0    0    0    0    0    0    0   -1 
   0    0    0    0    0    0    0    0    0    0    0    0    0    0    0    0    0    0    0    0    0    0    0    0    0    0    0    0    0    0    0    0    0    0    0    0    0    0    0    0    0    0    0    0    0    0    0    0    0    0 
